
Gurobi 9.0.2 (win64) logging started Sat Oct 10 14:45:02 2020

Changed value of parameter logfile to result\v6.2-20201010T1221\scenario_2030_eff080_cab1000.log
   Prev:   Default: 
Gurobi Optimizer version 9.0.2 build v9.0.2rc0 (win64)
Optimize a model with 1384150 rows, 884815 columns and 3912197 nonzeros
Model fingerprint: 0x40613203
Coefficient statistics:
  Matrix range     [1e-07, 3e+05]
  Objective range  [1e+00, 1e+00]
  Bounds range     [0e+00, 0e+00]
  RHS range        [2e-05, 3e+08]
Warning: Model contains large matrix coefficient range
         Consider reformulating model or setting NumericFocus parameter
         to avoid numerical issues.

Concurrent LP optimizer: primal simplex, dual simplex, and barrier
Showing barrier log only...

Presolve removed 1129315 rows and 656241 columns
Presolve time: 3.40s
Presolved: 254835 rows, 342440 columns, 891938 nonzeros

Ordering time: 0.13s

Barrier statistics:
 Dense cols : 9
 AA' NZ     : 8.194e+05
 Factor NZ  : 4.461e+06 (roughly 300 MBytes of memory)
 Factor Ops : 1.125e+08 (less than 1 second per iteration)
 Threads    : 30

                  Objective                Residual
Iter       Primal          Dual         Primal    Dual     Compl     Time
   0  -1.88122677e+16 -1.58516109e+15  5.64e+06 1.56e+04  2.26e+12     4s
   1  -2.86985555e+15 -1.58807445e+15  8.53e+05 4.69e+06  7.41e+11     4s
   2  -1.21912441e+15 -1.28703949e+15  3.60e+05 9.66e+05  2.23e+11     5s
   3  -4.90363522e+14 -1.06232267e+15  1.42e+05 2.72e+05  7.90e+10     5s
   4  -1.12864892e+14 -6.69907279e+14  3.01e+04 6.72e+04  1.83e+10     5s
   5  -3.54672333e+13 -4.52564600e+14  9.40e+03 3.39e+04  7.60e+09     6s
   6  -1.71946505e+13 -2.53578359e+14  4.77e+03 1.04e+04  2.95e+09     6s
   7  -6.92441288e+12 -1.44653884e+14  2.04e+03 1.98e+03  9.27e+08     6s
   8  -1.39732792e+12 -7.41792322e+13  5.24e+02 2.98e+02  2.31e+08     6s
   9   4.64593824e+11 -1.02102738e+13  2.98e+00 3.77e+00  1.61e+07     7s
  10   1.76644771e+11 -1.55619383e+12  3.03e-01 4.34e-01  2.54e+06     7s
  11   8.36734123e+10 -5.02412354e+11  1.13e-01 4.61e-02  8.54e+05     7s
  12   5.16974048e+10 -3.86644047e+11  6.53e-02 4.00e-03  6.37e+05     7s
  13   2.40271016e+10 -1.63407095e+11  2.31e-02 1.12e-08  2.72e+05     8s
  14   1.42662747e+10 -6.26288765e+10  1.06e-02 7.45e-09  1.11e+05     8s
  15   1.34412553e+10 -3.67026032e+10  9.48e-03 7.45e-09  7.28e+04     8s
  16   1.32912431e+10 -3.11680089e+10  8.93e-03 7.45e-09  6.45e+04     8s
  17   9.61736067e+09 -9.98818347e+09  4.38e-03 1.12e-08  2.85e+04     9s
  18   6.80807123e+09 -1.75658160e+09  1.02e-03 9.31e-09  1.24e+04     9s
  19   6.22452983e+09  1.61323572e+09  5.06e-04 5.59e-09  6.67e+03     9s
  20   6.06249702e+09  3.13311863e+09  3.82e-04 5.59e-09  4.24e+03    10s
  21   5.99993467e+09  3.40277710e+09  3.35e-04 5.59e-09  3.75e+03    10s
  22   5.92084900e+09  3.76440295e+09  2.77e-04 4.66e-09  3.12e+03    10s
  23   5.86491845e+09  4.10814034e+09  2.36e-04 3.73e-09  2.54e+03    10s
  24   5.75246352e+09  4.63997824e+09  1.55e-04 2.79e-09  1.61e+03    11s
  25   5.68064617e+09  4.88719969e+09  1.06e-04 2.79e-09  1.15e+03    11s
  26   5.63073551e+09  5.02483184e+09  7.29e-05 1.86e-09  8.75e+02    11s
  27   5.59869897e+09  5.15465253e+09  5.25e-05 1.86e-09  6.41e+02    12s
  28   5.57558334e+09  5.27342985e+09  3.76e-05 1.86e-09  4.37e+02    12s
  29   5.55777152e+09  5.34881746e+09  2.71e-05 1.86e-09  3.02e+02    12s
  30   5.54759432e+09  5.39574237e+09  2.12e-05 1.86e-09  2.19e+02    13s
  31   5.53927199e+09  5.42224097e+09  1.68e-05 1.86e-09  1.69e+02    13s
  32   5.53495053e+09  5.42824325e+09  1.43e-05 1.86e-09  1.54e+02    14s
  33   5.52893340e+09  5.45794083e+09  1.10e-05 1.86e-09  1.03e+02    14s
  34   5.52679841e+09  5.46606574e+09  9.83e-06 1.86e-09  8.78e+01    14s
  35   5.52502740e+09  5.46853845e+09  8.80e-06 1.86e-09  8.16e+01    15s
  36   5.52223126e+09  5.47679837e+09  7.30e-06 1.86e-09  6.56e+01    15s
  37   5.52072298e+09  5.48095814e+09  6.50e-06 1.86e-09  5.75e+01    15s
  38   5.51968398e+09  5.48405118e+09  5.93e-06 1.86e-09  5.15e+01    16s
  39   5.51855324e+09  5.48911597e+09  5.27e-06 1.86e-09  4.25e+01    16s
  40   5.51711163e+09  5.49241477e+09  4.49e-06 2.79e-09  3.57e+01    16s
  41   5.51613343e+09  5.49568703e+09  3.95e-06 2.79e-09  2.96e+01    17s
  42   5.51496077e+09  5.49696633e+09  3.32e-06 2.79e-09  2.60e+01    17s
  43   5.51452489e+09  5.49856959e+09  3.10e-06 1.86e-09  2.31e+01    18s
  44   5.51381847e+09  5.50072404e+09  2.70e-06 1.86e-09  1.89e+01    18s
  45   5.51293359e+09  5.50207798e+09  2.20e-06 1.86e-09  1.57e+01    18s
  46   5.51241755e+09  5.50360694e+09  1.91e-06 1.86e-09  1.27e+01    19s
  47   5.51161518e+09  5.50451312e+09  1.46e-06 1.86e-09  1.03e+01    19s
  48   5.51124381e+09  5.50529570e+09  1.26e-06 1.86e-09  8.60e+00    19s
  49   5.51089714e+09  5.50603631e+09  1.07e-06 1.86e-09  7.03e+00    20s
  50   5.51073080e+09  5.50647282e+09  9.84e-07 1.86e-09  6.16e+00    20s
  51   5.51050020e+09  5.50680255e+09  8.64e-07 1.86e-09  5.35e+00    20s
  52   5.51037906e+09  5.50712742e+09  7.95e-07 1.86e-09  4.70e+00    21s
  53   5.51016770e+09  5.50733572e+09  6.80e-07 1.86e-09  4.09e+00    21s
  54   5.50999958e+09  5.50757278e+09  5.90e-07 1.86e-09  3.51e+00    22s
  55   5.50983424e+09  5.50783937e+09  5.06e-07 1.86e-09  2.88e+00    22s
  56   5.50977758e+09  5.50795947e+09  1.00e-06 1.86e-09  2.63e+00    22s
  57   5.50967223e+09  5.50812172e+09  1.03e-06 1.86e-09  2.24e+00    23s
  58   5.50960450e+09  5.50837430e+09  9.25e-07 1.86e-09  1.78e+00    23s
  59   5.50955307e+09  5.50843587e+09  8.74e-07 1.86e-09  1.62e+00    24s
  60   5.50948973e+09  5.50849630e+09  7.94e-07 1.86e-09  1.44e+00    24s
  61   5.50936560e+09  5.50858154e+09  6.30e-07 1.86e-09  1.13e+00    24s
  62   5.50932128e+09  5.50863487e+09  5.70e-07 1.86e-09  9.93e-01    25s
  63   5.50922314e+09  5.50867585e+09  7.60e-07 2.79e-09  7.92e-01    25s
  64   5.50918969e+09  5.50870274e+09  6.79e-07 1.86e-09  7.04e-01    26s
  65   5.50915404e+09  5.50873720e+09  5.95e-07 1.86e-09  6.03e-01    26s
  66   5.50907351e+09  5.50881080e+09  3.74e-07 1.86e-09  3.80e-01    27s
  67   5.50905252e+09  5.50884568e+09  3.21e-07 1.86e-09  2.99e-01    27s
  68   5.50902636e+09  5.50886125e+09  2.58e-07 1.86e-09  2.39e-01    28s
  69   5.50900118e+09  5.50890669e+09  1.92e-07 2.79e-09  1.37e-01    28s
  70   5.50899711e+09  5.50890881e+09  1.81e-07 2.79e-09  1.28e-01    29s
  71   5.50898903e+09  5.50891172e+09  1.59e-07 1.86e-09  1.12e-01    29s
  72   5.50898220e+09  5.50891298e+09  1.44e-07 2.79e-09  1.00e-01    30s
  73   5.50897561e+09  5.50891452e+09  1.29e-07 2.79e-09  8.85e-02    30s
  74   5.50897260e+09  5.50891810e+09  1.21e-07 1.86e-09  7.89e-02    31s
  75   5.50897002e+09  5.50891934e+09  1.15e-07 2.79e-09  7.34e-02    31s
  76   5.50896402e+09  5.50892017e+09  1.00e-07 2.79e-09  6.35e-02    32s
  77   5.50895541e+09  5.50892347e+09  7.80e-08 2.79e-09  4.63e-02    32s
  78   5.50894962e+09  5.50892386e+09  6.35e-08 1.86e-09  3.73e-02    33s
  79   5.50894383e+09  5.50892828e+09  4.68e-08 2.79e-09  2.25e-02    34s
  80   5.50893837e+09  5.50892857e+09  3.27e-08 1.86e-09  1.42e-02    34s

Barrier solved model in 80 iterations and 34.29 seconds
Optimal objective 5.50893837e+09

Crossover log...

   74466 DPushes remaining with DInf 0.0000000e+00                35s
    9377 DPushes remaining with DInf 0.0000000e+00                35s
       0 DPushes remaining with DInf 0.0000000e+00                39s
Warning: Markowitz tolerance tightened to 0.25

  175209 PPushes remaining with PInf 0.0000000e+00                39s
   65248 PPushes remaining with PInf 4.0321837e-03                77s
   27301 PPushes remaining with PInf 0.0000000e+00                85s
   26201 PPushes remaining with PInf 0.0000000e+00                87s
   16934 PPushes remaining with PInf 0.0000000e+00               114s
   15706 PPushes remaining with PInf 0.0000000e+00               117s
   13834 PPushes remaining with PInf 0.0000000e+00               121s
    4596 PPushes remaining with PInf 0.0000000e+00               136s
    3128 PPushes remaining with PInf 0.0000000e+00               140s
     771 PPushes remaining with PInf 0.0000000e+00               147s
       0 PPushes remaining with PInf 0.0000000e+00               151s

  Push phase complete: Pinf 0.0000000e+00, Dinf 1.3821417e+06    151s

Iteration    Objective       Primal Inf.    Dual Inf.      Time
  201911    5.5089305e+09   0.000000e+00   1.382142e+06    151s
  203255    5.5089290e+09   0.000000e+00   2.498691e+04    155s
  205748    5.5089290e+09   0.000000e+00   0.000000e+00    161s

Solved with barrier
Solved in 205748 iterations and 161.33 seconds
Optimal objective  5.508929006e+09
Warning: unscaled primal violation = 0.000868836 and residual = 0.000868836
